TYPE : Vertex Cover
DIMENSION: 40
EDGE_DATA_SECTION:
0 1
0 4
0 11
0 16
0 23
0 26
0 33
0 35
1 10
1 11
1 20
1 21
1 23
1 26
1 28
1 36
2 11
2 14
2 20
2 30
3 12
3 13
3 15
3 19
3 29
4 5
4 14
4 15
4 16
4 18
4 20
4 25
4 26
4 28
4 30
4 32
4 35
4 37
4 39
5 6
5 9
5 26
5 28
5 31
5 32
5 35
6 7
6 8
6 14
6 20
6 26
6 38
7 14
7 15
7 19
7 27
7 30
7 34
7 37
8 10
8 23
8 29
8 31
9 12
9 15
9 21
9 31
9 33
10 11
10 22
11 16
11 21
11 24
11 26
11 27
11 31
11 32
11 33
11 36
11 38
12 13
12 14
12 16
12 18
12 26
12 33
12 34
13 17
13 21
13 29
13 30
13 36
14 17
14 20
14 29
14 31
15 18
15 23
15 29
15 31
15 32
15 33
16 25
16 35
17 30
17 32
18 19
18 24
18 36
18 38
18 39
19 20
19 28
19 34
19 35
19 36
19 39
20 23
20 24
20 32
20 34
21 25
21 26
21 30
21 37
23 34
23 37
23 39
24 26
25 28
26 28
26 30
27 35
27 39
28 33
29 30
29 36
29 37
30 34
30 35
30 38
30 39
31 38
33 34
33 35
34 38
35 36
36 38
37 38
37 39
-1
VERTEX_DEGREE:
8.0 9.0 4.0 5.0 15.0 8.0 7.0 8.0 5.0 6.0 4.0 14.0 9.0 7.0 9.0 10.0 6.0 4.0 8.0 9.0 10.0 8.0 1.0 8.0 4.0 4.0 11.0 4.0 7.0 8.0 12.0 7.0 6.0 8.0 8.0 9.0 8.0 7.0 8.0 7.0
VERTEX_COVER:
0 1 4 5 6 7 10 11 12 13 14 15 17 18 19 20 21 23 25 26 29 30 31 33 35 38 39
EOF
